132 5
10 10 10 10 10 

0 0 0 0 0 0 1 2 
0 0 0 0 0 0 3 3 11 12 
9 0 0 5 0 0 2 7 4 
10 0 0 5 0 0 1 5 
3 0 0 8 0 0 2 9 6 
5 0 0 7 0 0 1 8 
8 0 0 10 0 0 1 10 
9 0 0 10 0 0 1 13 
5 0 0 9 0 0 1 13 
2 0 0 10 0 0 1 13 
7 0 0 6 0 0 1 13 
6 0 0 5 0 0 1 13 
0 0 0 0 0 0 1 14 
0 0 0 0 0 0 3 15 18 24 
7 5 0 0 0 0 2 23 16 
3 4 0 0 0 0 2 19 17 
3 6 0 0 0 0 2 21 20 
10 10 0 0 0 0 1 19 
6 8 0 0 0 0 1 21 
10 8 0 0 0 0 1 22 
8 10 0 0 0 0 1 25 
4 10 0 0 0 0 1 25 
2 9 0 0 0 0 1 25 
4 5 0 0 0 0 1 25 
0 0 0 0 0 0 1 26 
0 0 0 0 0 0 3 27 29 30 
1 0 3 0 0 0 1 28 
10 0 7 0 0 0 3 36 33 31 
7 0 4 0 0 0 3 36 33 31 
4 0 10 0 0 0 2 35 33 
2 0 5 0 0 0 1 32 
10 0 10 0 0 0 2 35 34 
2 0 10 0 0 0 1 34 
5 0 9 0 0 0 1 37 
3 0 9 0 0 0 1 37 
9 0 8 0 0 0 1 37 
0 0 0 0 0 0 2 38 60 
0 0 0 0 0 0 4 39 56 57 58 
9 0 3 0 6 0 5 55 54 53 40 63 
6 0 5 0 6 0 1 41 
7 0 9 0 4 0 1 42 
6 0 10 0 8 0 3 52 51 43 
2 0 9 0 7 0 2 50 44 
8 0 8 0 10 0 2 49 45 
8 0 6 0 10 0 1 46 
6 0 6 0 6 0 1 47 
7 0 4 0 6 0 1 48 
3 0 10 0 10 0 1 59 
5 0 6 0 5 0 1 59 
10 0 7 0 7 0 1 59 
2 0 10 0 5 0 1 59 
8 0 9 0 9 0 1 59 
3 0 6 0 8 0 1 59 
2 0 5 0 8 0 1 59 
2 0 7 0 6 0 1 59 
6 0 10 0 10 0 1 59 
8 0 10 0 10 0 1 59 
10 0 10 0 9 0 1 59 
0 0 0 0 0 0 1 132 
0 0 0 0 0 0 3 61 63 65 
9 0 0 2 0 0 2 69 62 
4 0 0 7 0 0 2 70 64 
3 0 0 5 0 0 5 70 69 68 67 115 
9 0 0 8 0 0 2 68 66 
7 0 0 5 0 0 2 69 67 
10 0 0 9 0 0 1 67 
8 0 0 9 0 0 1 71 
10 0 0 10 0 0 1 71 
8 0 0 10 0 0 1 71 
8 0 0 10 0 0 1 71 
0 0 0 0 0 0 5 72 84 96 108 120 
0 0 0 0 0 0 4 73 76 82 112 
3 0 0 3 0 0 2 78 74 
10 0 0 6 0 0 1 75 
2 0 0 10 0 0 2 79 77 
8 0 0 6 0 0 2 79 78 
2 0 0 7 0 0 2 81 80 
4 0 0 9 0 0 2 81 80 
4 0 0 10 0 0 1 80 
1 0 0 7 0 0 1 83 
2 0 0 8 0 0 1 83 
1 0 0 9 0 0 1 83 
0 0 0 0 0 0 1 132 
0 0 0 0 0 0 3 85 89 94 
1 0 0 0 3 0 2 87 86 
2 0 0 0 6 0 2 91 88 
8 0 0 0 8 0 2 91 88 
5 0 0 0 5 0 2 93 90 
7 0 0 0 10 0 1 90 
8 0 0 0 10 0 2 92 97 
4 0 0 0 9 0 1 92 
3 0 0 0 5 0 1 95 
5 0 0 0 9 0 1 95 
5 0 0 0 10 0 1 95 
0 0 0 0 0 0 1 132 
0 0 0 0 0 0 4 97 101 105 106 
8 0 0 0 0 4 2 103 98 
2 0 0 0 0 7 2 104 99 
9 0 0 0 0 4 1 100 
3 0 0 0 0 6 1 102 
1 0 0 0 0 10 1 103 
9 0 0 0 0 10 2 107 117 
1 0 0 0 0 10 1 107 
1 0 0 0 0 5 1 107 
8 0 0 0 0 9 1 107 
3 0 0 0 0 10 1 107 
0 0 0 0 0 0 1 132 
0 0 0 0 0 0 3 109 111 112 
7 0 0 2 0 0 2 114 110 
9 0 0 9 0 0 2 116 113 
4 0 0 7 0 0 2 116 113 
9 0 0 8 0 0 2 113 126 
1 0 0 7 0 0 1 115 
7 0 0 10 0 0 1 115 
4 0 0 9 0 0 2 118 117 
10 0 0 4 0 0 1 117 
9 0 0 10 0 0 1 119 
5 0 0 9 0 0 1 119 
0 0 0 0 0 0 1 132 
0 0 0 0 0 0 4 121 122 123 124 
1 0 0 4 0 0 3 130 129 126 
1 0 0 3 0 0 2 129 125 
4 0 0 6 0 0 2 129 126 
10 0 0 8 0 0 2 129 127 
7 0 0 10 0 0 1 126 
3 0 0 10 0 0 1 127 
9 0 0 9 0 0 1 128 
3 0 0 10 0 0 1 131 
6 0 0 5 0 0 1 131 
10 0 0 10 0 0 1 131 
0 0 0 0 0 0 1 132 
0 0 0 0 0 0 0 
